1 1861 9
2 1640 9
3 1560 9
5 1498 9
17 1473 9
28 1457 9
168 1454 9
245 1428 9



1 1831 9
2 1597 9
3 1558 9
4 1555 9
5 1536 9
13 1491 9
38 1479 9
100 1439 9



1 1842 10
2 1611 9
3 1605 9
4 1599 9
5 1478 9
31 1475 9
41 1466 9
107 1459 9
210 1456 9
222 1428 9



1 1862 9
2 1600 9
3 1534 9
4 1517 9
35 1515 9
37 1506 9
42 1494 9
43 1483 9
47 1468 9
54 1459 9
104 1455 9
212 1452 9
289 1447 9
809 1440 9



1 1899 9
2 1593 9
4 1567 9
5 1532 9
7 1473 9
168 1466 9
292 1464 9
395 1462 9
494 1433 9
887 1431 9



